
  32    4
  10   10   10   10

   0   0   0   0   0   7 2 3 4 6 8 9 14 
   1   0   1   1   1   4 15 11 7 5 
   7   0   5   6   3   6 19 17 15 13 12 11 
   6   0   3   5   4   5 16 15 13 12 10 
  10   0   8   3   5   5 31 19 17 16 13 
   2   1   0   2   3   2 16 7 
   3   3   4   6   0   5 31 22 19 18 12 
  10   0   4   4   5   6 31 30 21 20 19 18 
   8   0   7   2   5   4 21 20 18 16 
   2   3   5   4   0   6 31 29 24 22 20 19 
   3   7   6   8   0   3 31 20 16 
  10   6   0   3   3   6 30 29 25 24 21 20 
   6   3   0   8   6   5 25 22 21 20 18 
   4   1   4   0   5   5 31 30 29 21 18 
   6   1   0   2   6   5 31 30 25 22 20 
   9   0   3   1   4   5 30 29 24 23 22 
   2   0   4   4   2   4 29 25 22 20 
   6   3   1   4   0   2 24 23 
   8   2   6   8   0   3 28 27 25 
   5   1   1   2   0   2 26 23 
  10   5   2   0   3   2 26 23 
   3   0   6   4   5   3 28 27 26 
   5   5   4   0   1   2 28 27 
   9   8   5   0   8   1 26 
   4   4   0   2   5   1 26 
   9   0   2   4   2   1 32
   3   0   4   3   5   1 32
   4   0   4   3   3   1 32
  10   8   3   0   4   1 32
   8   7   0   5   5   1 32
  10   4   0   6   3   1 32
   0   0   0   0   0   0 
